p cnf 743 2178
c inputs: 1 2 3 4 5 6 7 8 9 10 11 12 13 14 15 16 17
c variables for gates: 18 ... 726
c outputs: 727 728 729 730 731 732 733 734 735 736 737 738 739 740 741 742 743
c random input: -1 -2 -3 4 5 6 -7 8 9 -10 -11 12 -13 -14 15 16 17
18 -1 -9 0
-18 1 0
-18 9 0
19 -1 -10 0
-19 1 0
-19 10 0
20 -1 -11 0
-20 1 0
-20 11 0
21 -1 -12 0
-21 1 0
-21 12 0
22 -1 -13 0
-22 1 0
-22 13 0
23 -1 -14 0
-23 1 0
-23 14 0
24 -1 -15 0
-24 1 0
-24 15 0
25 -1 -16 0
-25 1 0
-25 16 0
26 -1 -17 0
-26 1 0
-26 17 0
27 -2 -9 0
-27 2 0
-27 9 0
28 -2 -10 0
-28 2 0
-28 10 0
29 -2 -11 0
-29 2 0
-29 11 0
30 -2 -12 0
-30 2 0
-30 12 0
31 -2 -13 0
-31 2 0
-31 13 0
32 -2 -14 0
-32 2 0
-32 14 0
33 -2 -15 0
-33 2 0
-33 15 0
34 -2 -16 0
-34 2 0
-34 16 0
35 -2 -17 0
-35 2 0
-35 17 0
36 -3 -9 0
-36 3 0
-36 9 0
37 -3 -10 0
-37 3 0
-37 10 0
38 -3 -11 0
-38 3 0
-38 11 0
39 -3 -12 0
-39 3 0
-39 12 0
40 -3 -13 0
-40 3 0
-40 13 0
41 -3 -14 0
-41 3 0
-41 14 0
42 -3 -15 0
-42 3 0
-42 15 0
43 -3 -16 0
-43 3 0
-43 16 0
44 -3 -17 0
-44 3 0
-44 17 0
45 -4 -9 0
-45 4 0
-45 9 0
46 -4 -10 0
-46 4 0
-46 10 0
47 -4 -11 0
-47 4 0
-47 11 0
48 -4 -12 0
-48 4 0
-48 12 0
49 -4 -13 0
-49 4 0
-49 13 0
50 -4 -14 0
-50 4 0
-50 14 0
51 -4 -15 0
-51 4 0
-51 15 0
52 -4 -16 0
-52 4 0
-52 16 0
53 -4 -17 0
-53 4 0
-53 17 0
54 -5 -9 0
-54 5 0
-54 9 0
55 -5 -10 0
-55 5 0
-55 10 0
56 -5 -11 0
-56 5 0
-56 11 0
57 -5 -12 0
-57 5 0
-57 12 0
58 -5 -13 0
-58 5 0
-58 13 0
59 -5 -14 0
-59 5 0
-59 14 0
60 -5 -15 0
-60 5 0
-60 15 0
61 -5 -16 0
-61 5 0
-61 16 0
62 -5 -17 0
-62 5 0
-62 17 0
63 -6 -9 0
-63 6 0
-63 9 0
64 -6 -10 0
-64 6 0
-64 10 0
65 -6 -11 0
-65 6 0
-65 11 0
66 -6 -12 0
-66 6 0
-66 12 0
67 -6 -13 0
-67 6 0
-67 13 0
68 -6 -14 0
-68 6 0
-68 14 0
69 -6 -15 0
-69 6 0
-69 15 0
70 -6 -16 0
-70 6 0
-70 16 0
71 -6 -17 0
-71 6 0
-71 17 0
72 -7 -9 0
-72 7 0
-72 9 0
73 -7 -10 0
-73 7 0
-73 10 0
74 -7 -11 0
-74 7 0
-74 11 0
75 -7 -12 0
-75 7 0
-75 12 0
76 -7 -13 0
-76 7 0
-76 13 0
77 -7 -14 0
-77 7 0
-77 14 0
78 -7 -15 0
-78 7 0
-78 15 0
79 -7 -16 0
-79 7 0
-79 16 0
80 -7 -17 0
-80 7 0
-80 17 0
81 -8 -9 0
-81 8 0
-81 9 0
82 -8 -10 0
-82 8 0
-82 10 0
83 -8 -11 0
-83 8 0
-83 11 0
84 -8 -12 0
-84 8 0
-84 12 0
85 -8 -13 0
-85 8 0
-85 13 0
86 -8 -14 0
-86 8 0
-86 14 0
87 -8 -15 0
-87 8 0
-87 15 0
88 -8 -16 0
-88 8 0
-88 16 0
89 -8 -17 0
-89 8 0
-89 17 0
90 -64 -72 0
-90 64 0
-90 72 0
91 -72 64 0
-91 72 0
-91 -64 0
92 -64 72 0
-92 64 0
-92 -72 0
93 92 91 0
-93 -92 0
-93 -91 0
94 -81 -90 0
-94 81 0
-94 90 0
95 -73 -90 0
-95 73 0
-95 90 0
96 -73 -81 0
-96 73 0
-96 81 0
97 96 95 0
-97 -96 0
-97 -95 0
98 94 -97 0
-98 -94 0
-98 97 0
99 -81 73 0
-99 81 0
-99 -73 0
100 -73 81 0
-100 73 0
-100 -81 0
101 99 100 0
-101 -99 0
-101 -100 0
102 -90 -101 0
-102 90 0
-102 101 0
103 90 101 0
-103 -90 0
-103 -101 0
104 103 102 0
-104 -103 0
-104 -102 0
105 -65 104 0
-105 65 0
-105 -104 0
106 65 104 0
-106 -65 0
-106 -104 0
107 -65 -104 0
-107 65 0
-107 104 0
108 106 107 0
-108 -106 0
-108 -107 0
109 98 -105 0
-109 -98 0
-109 105 0
110 -82 -105 0
-110 82 0
-110 105 0
111 -82 98 0
-111 82 0
-111 -98 0
112 111 110 0
-112 -111 0
-112 -110 0
113 109 -112 0
-113 -109 0
-113 112 0
114 82 98 0
-114 -82 0
-114 -98 0
115 -82 -98 0
-115 82 0
-115 98 0
116 114 115 0
-116 -114 0
-116 -115 0
117 -105 -116 0
-117 105 0
-117 116 0
118 105 116 0
-118 -105 0
-118 -116 0
119 118 117 0
-119 -118 0
-119 -117 0
120 -74 119 0
-120 74 0
-120 -119 0
121 -66 119 0
-121 66 0
-121 -119 0
122 -66 -74 0
-122 66 0
-122 74 0
123 122 121 0
-123 -122 0
-123 -121 0
124 120 -123 0
-124 -120 0
-124 123 0
125 -74 66 0
-125 74 0
-125 -66 0
126 -66 74 0
-126 66 0
-126 -74 0
127 126 125 0
-127 -126 0
-127 -125 0
128 -127 119 0
-128 127 0
-128 -119 0
129 127 -119 0
-129 -127 0
-129 119 0
130 128 129 0
-130 -128 0
-130 -129 0
131 113 124 0
-131 -113 0
-131 -124 0
132 -83 124 0
-132 83 0
-132 -124 0
133 -83 113 0
-133 83 0
-133 -113 0
134 133 132 0
-134 -133 0
-134 -132 0
135 131 -134 0
-135 -131 0
-135 134 0
136 83 113 0
-136 -83 0
-136 -113 0
137 -83 -113 0
-137 83 0
-137 113 0
138 137 136 0
-138 -137 0
-138 -136 0
139 124 -138 0
-139 -124 0
-139 138 0
140 -124 138 0
-140 124 0
-140 -138 0
141 140 139 0
-141 -140 0
-141 -139 0
142 -75 141 0
-142 75 0
-142 -141 0
143 75 141 0
-143 -75 0
-143 -141 0
144 -75 -141 0
-144 75 0
-144 141 0
145 144 143 0
-145 -144 0
-145 -143 0
146 -142 135 0
-146 142 0
-146 -135 0
147 -84 -142 0
-147 84 0
-147 142 0
148 -84 135 0
-148 84 0
-148 -135 0
149 147 148 0
-149 -147 0
-149 -148 0
150 -149 146 0
-150 149 0
-150 -146 0
151 84 135 0
-151 -84 0
-151 -135 0
152 -84 -135 0
-152 84 0
-152 135 0
153 151 152 0
-153 -151 0
-153 -152 0
154 -142 -153 0
-154 142 0
-154 153 0
155 142 153 0
-155 -142 0
-155 -153 0
156 155 154 0
-156 -155 0
-156 -154 0
157 -46 -54 0
-157 46 0
-157 54 0
158 -54 46 0
-158 54 0
-158 -46 0
159 -46 54 0
-159 46 0
-159 -54 0
160 158 159 0
-160 -158 0
-160 -159 0
161 -63 -157 0
-161 63 0
-161 157 0
162 -55 -157 0
-162 55 0
-162 157 0
163 -63 -55 0
-163 63 0
-163 55 0
164 163 162 0
-164 -163 0
-164 -162 0
165 161 -164 0
-165 -161 0
-165 164 0
166 -63 55 0
-166 63 0
-166 -55 0
167 -55 63 0
-167 55 0
-167 -63 0
168 166 167 0
-168 -166 0
-168 -167 0
169 -157 -168 0
-169 157 0
-169 168 0
170 157 168 0
-170 -157 0
-170 -168 0
171 170 169 0
-171 -170 0
-171 -169 0
172 -47 171 0
-172 47 0
-172 -171 0
173 47 171 0
-173 -47 0
-173 -171 0
174 -47 -171 0
-174 47 0
-174 171 0
175 173 174 0
-175 -173 0
-175 -174 0
176 165 -172 0
-176 -165 0
-176 172 0
177 93 -172 0
-177 -93 0
-177 172 0
178 93 165 0
-178 -93 0
-178 -165 0
179 178 177 0
-179 -178 0
-179 -177 0
180 -179 176 0
-180 179 0
-180 -176 0
181 -93 165 0
-181 93 0
-181 -165 0
182 93 -165 0
-182 -93 0
-182 165 0
183 182 181 0
-183 -182 0
-183 -181 0
184 -183 -172 0
-184 183 0
-184 172 0
185 183 172 0
-185 -183 0
-185 -172 0
186 185 184 0
-186 -185 0
-186 -184 0
187 -56 186 0
-187 56 0
-187 -186 0
188 -48 186 0
-188 48 0
-188 -186 0
189 -48 -56 0
-189 48 0
-189 56 0
190 189 188 0
-190 -189 0
-190 -188 0
191 187 -190 0
-191 -187 0
-191 190 0
192 -56 48 0
-192 56 0
-192 -48 0
193 -48 56 0
-193 48 0
-193 -56 0
194 192 193 0
-194 -192 0
-194 -193 0
195 -194 186 0
-195 194 0
-195 -186 0
196 194 -186 0
-196 -194 0
-196 186 0
197 195 196 0
-197 -195 0
-197 -196 0
198 180 191 0
-198 -180 0
-198 -191 0
199 108 191 0
-199 -108 0
-199 -191 0
200 108 180 0
-200 -108 0
-200 -180 0
201 199 200 0
-201 -199 0
-201 -200 0
202 198 -201 0
-202 -198 0
-202 201 0
203 -108 180 0
-203 108 0
-203 -180 0
204 108 -180 0
-204 -108 0
-204 180 0
205 203 204 0
-205 -203 0
-205 -204 0
206 -205 191 0
-206 205 0
-206 -191 0
207 205 -191 0
-207 -205 0
-207 191 0
208 207 206 0
-208 -207 0
-208 -206 0
209 -57 208 0
-209 57 0
-209 -208 0
210 -49 208 0
-210 49 0
-210 -208 0
211 -49 -57 0
-211 49 0
-211 57 0
212 211 210 0
-212 -211 0
-212 -210 0
213 209 -212 0
-213 -209 0
-213 212 0
214 -57 49 0
-214 57 0
-214 -49 0
215 -49 57 0
-215 49 0
-215 -57 0
216 214 215 0
-216 -214 0
-216 -215 0
217 -216 208 0
-217 216 0
-217 -208 0
218 216 -208 0
-218 -216 0
-218 208 0
219 217 218 0
-219 -217 0
-219 -218 0
220 202 213 0
-220 -202 0
-220 -213 0
221 213 130 0
-221 -213 0
-221 -130 0
222 202 130 0
-222 -202 0
-222 -130 0
223 222 221 0
-223 -222 0
-223 -221 0
224 220 -223 0
-224 -220 0
-224 223 0
225 202 -130 0
-225 -202 0
-225 130 0
226 -202 130 0
-226 202 0
-226 -130 0
227 225 226 0
-227 -225 0
-227 -226 0
228 -227 213 0
-228 227 0
-228 -213 0
229 227 -213 0
-229 -227 0
-229 213 0
230 229 228 0
-230 -229 0
-230 -228 0
231 -58 230 0
-231 58 0
-231 -230 0
232 -50 230 0
-232 50 0
-232 -230 0
233 -50 -58 0
-233 50 0
-233 58 0
234 233 232 0
-234 -233 0
-234 -232 0
235 231 -234 0
-235 -231 0
-235 234 0
236 -58 50 0
-236 58 0
-236 -50 0
237 -50 58 0
-237 50 0
-237 -58 0
238 236 237 0
-238 -236 0
-238 -237 0
239 -238 230 0
-239 238 0
-239 -230 0
240 238 -230 0
-240 -238 0
-240 230 0
241 239 240 0
-241 -239 0
-241 -240 0
242 224 235 0
-242 -224 0
-242 -235 0
243 145 235 0
-243 -145 0
-243 -235 0
244 145 224 0
-244 -145 0
-244 -224 0
245 244 243 0
-245 -244 0
-245 -243 0
246 -245 242 0
-246 245 0
-246 -242 0
247 -145 224 0
-247 145 0
-247 -224 0
248 145 -224 0
-248 -145 0
-248 224 0
249 247 248 0
-249 -247 0
-249 -248 0
250 235 -249 0
-250 -235 0
-250 249 0
251 -235 249 0
-251 235 0
-251 -249 0
252 250 251 0
-252 -250 0
-252 -251 0
253 -67 252 0
-253 67 0
-253 -252 0
254 -59 252 0
-254 59 0
-254 -252 0
255 -67 -59 0
-255 67 0
-255 59 0
256 255 254 0
-256 -255 0
-256 -254 0
257 253 -256 0
-257 -253 0
-257 256 0
258 -67 59 0
-258 67 0
-258 -59 0
259 -59 67 0
-259 59 0
-259 -67 0
260 258 259 0
-260 -258 0
-260 -259 0
261 -260 252 0
-261 260 0
-261 -252 0
262 260 -252 0
-262 -260 0
-262 252 0
263 262 261 0
-263 -262 0
-263 -261 0
264 257 246 0
-264 -257 0
-264 -246 0
265 257 156 0
-265 -257 0
-265 -156 0
266 156 246 0
-266 -156 0
-266 -246 0
267 266 265 0
-267 -266 0
-267 -265 0
268 264 -267 0
-268 -264 0
-268 267 0
269 -156 246 0
-269 156 0
-269 -246 0
270 156 -246 0
-270 -156 0
-270 246 0
271 270 269 0
-271 -270 0
-271 -269 0
272 -271 257 0
-272 271 0
-272 -257 0
273 271 -257 0
-273 -271 0
-273 257 0
274 272 273 0
-274 -272 0
-274 -273 0
275 -76 274 0
-275 76 0
-275 -274 0
276 -68 274 0
-276 68 0
-276 -274 0
277 -68 -76 0
-277 68 0
-277 76 0
278 277 276 0
-278 -277 0
-278 -276 0
279 275 -278 0
-279 -275 0
-279 278 0
280 -76 68 0
-280 76 0
-280 -68 0
281 -68 76 0
-281 68 0
-281 -76 0
282 281 280 0
-282 -281 0
-282 -280 0
283 -282 274 0
-283 282 0
-283 -274 0
284 282 -274 0
-284 -282 0
-284 274 0
285 283 284 0
-285 -283 0
-285 -284 0
286 279 268 0
-286 -279 0
-286 -268 0
287 279 150 0
-287 -279 0
-287 -150 0
288 268 150 0
-288 -268 0
-288 -150 0
289 288 287 0
-289 -288 0
-289 -287 0
290 286 -289 0
-290 -286 0
-290 289 0
291 268 -150 0
-291 -268 0
-291 150 0
292 -268 150 0
-292 268 0
-292 -150 0
293 291 292 0
-293 -291 0
-293 -292 0
294 279 -293 0
-294 -279 0
-294 293 0
295 -279 293 0
-295 279 0
-295 -293 0
296 295 294 0
-296 -295 0
-296 -294 0
297 -85 296 0
-297 85 0
-297 -296 0
298 -77 296 0
-298 77 0
-298 -296 0
299 -77 -85 0
-299 77 0
-299 85 0
300 299 298 0
-300 -299 0
-300 -298 0
301 297 -300 0
-301 -297 0
-301 300 0
302 -85 77 0
-302 85 0
-302 -77 0
303 -77 85 0
-303 77 0
-303 -85 0
304 302 303 0
-304 -302 0
-304 -303 0
305 -304 296 0
-305 304 0
-305 -296 0
306 304 -296 0
-306 -304 0
-306 296 0
307 305 306 0
-307 -305 0
-307 -306 0
308 301 290 0
-308 -301 0
-308 -290 0
309 -86 301 0
-309 86 0
-309 -301 0
310 -86 290 0
-310 86 0
-310 -290 0
311 309 310 0
-311 -309 0
-311 -310 0
312 308 -311 0
-312 -308 0
-312 311 0
313 86 290 0
-313 -86 0
-313 -290 0
314 -86 -290 0
-314 86 0
-314 290 0
315 314 313 0
-315 -314 0
-315 -313 0
316 301 -315 0
-316 -301 0
-316 315 0
317 -301 315 0
-317 301 0
-317 -315 0
318 317 316 0
-318 -317 0
-318 -316 0
319 -45 -37 0
-319 45 0
-319 37 0
320 -45 37 0
-320 45 0
-320 -37 0
321 -37 45 0
-321 37 0
-321 -45 0
322 321 320 0
-322 -321 0
-322 -320 0
323 -319 160 0
-323 319 0
-323 -160 0
324 -38 -319 0
-324 38 0
-324 319 0
325 -38 160 0
-325 38 0
-325 -160 0
326 324 325 0
-326 -324 0
-326 -325 0
327 323 -326 0
-327 -323 0
-327 326 0
328 38 160 0
-328 -38 0
-328 -160 0
329 -38 -160 0
-329 38 0
-329 160 0
330 329 328 0
-330 -329 0
-330 -328 0
331 -319 -330 0
-331 319 0
-331 330 0
332 319 330 0
-332 -319 0
-332 -330 0
333 331 332 0
-333 -331 0
-333 -332 0
334 327 175 0
-334 -327 0
-334 -175 0
335 -39 327 0
-335 39 0
-335 -327 0
336 -39 175 0
-336 39 0
-336 -175 0
337 335 336 0
-337 -335 0
-337 -336 0
338 334 -337 0
-338 -334 0
-338 337 0
339 39 175 0
-339 -39 0
-339 -175 0
340 -39 -175 0
-340 39 0
-340 175 0
341 339 340 0
-341 -339 0
-341 -340 0
342 327 -341 0
-342 -327 0
-342 341 0
343 -327 341 0
-343 327 0
-343 -341 0
344 343 342 0
-344 -343 0
-344 -342 0
345 197 338 0
-345 -197 0
-345 -338 0
346 -40 338 0
-346 40 0
-346 -338 0
347 -40 197 0
-347 40 0
-347 -197 0
348 347 346 0
-348 -347 0
-348 -346 0
349 345 -348 0
-349 -345 0
-349 348 0
350 40 197 0
-350 -40 0
-350 -197 0
351 -40 -197 0
-351 40 0
-351 197 0
352 351 350 0
-352 -351 0
-352 -350 0
353 338 -352 0
-353 -338 0
-353 352 0
354 -338 352 0
-354 338 0
-354 -352 0
355 354 353 0
-355 -354 0
-355 -353 0
356 219 349 0
-356 -219 0
-356 -349 0
357 -41 349 0
-357 41 0
-357 -349 0
358 -41 219 0
-358 41 0
-358 -219 0
359 358 357 0
-359 -358 0
-359 -357 0
360 356 -359 0
-360 -356 0
-360 359 0
361 41 219 0
-361 -41 0
-361 -219 0
362 -41 -219 0
-362 41 0
-362 219 0
363 362 361 0
-363 -362 0
-363 -361 0
364 -363 349 0
-364 363 0
-364 -349 0
365 363 -349 0
-365 -363 0
-365 349 0
366 365 364 0
-366 -365 0
-366 -364 0
367 360 241 0
-367 -360 0
-367 -241 0
368 -42 360 0
-368 42 0
-368 -360 0
369 -42 241 0
-369 42 0
-369 -241 0
370 368 369 0
-370 -368 0
-370 -369 0
371 -370 367 0
-371 370 0
-371 -367 0
372 42 241 0
-372 -42 0
-372 -241 0
373 -42 -241 0
-373 42 0
-373 241 0
374 372 373 0
-374 -372 0
-374 -373 0
375 360 -374 0
-375 -360 0
-375 374 0
376 -360 374 0
-376 360 0
-376 -374 0
377 375 376 0
-377 -375 0
-377 -376 0
378 263 371 0
-378 -263 0
-378 -371 0
379 -51 371 0
-379 51 0
-379 -371 0
380 -51 263 0
-380 51 0
-380 -263 0
381 380 379 0
-381 -380 0
-381 -379 0
382 -381 378 0
-382 381 0
-382 -378 0
383 51 263 0
-383 -51 0
-383 -263 0
384 -51 -263 0
-384 51 0
-384 263 0
385 383 384 0
-385 -383 0
-385 -384 0
386 371 -385 0
-386 -371 0
-386 385 0
387 -371 385 0
-387 371 0
-387 -385 0
388 386 387 0
-388 -386 0
-388 -387 0
389 285 382 0
-389 -285 0
-389 -382 0
390 -60 382 0
-390 60 0
-390 -382 0
391 -60 285 0
-391 60 0
-391 -285 0
392 391 390 0
-392 -391 0
-392 -390 0
393 -392 389 0
-393 392 0
-393 -389 0
394 60 285 0
-394 -60 0
-394 -285 0
395 -60 -285 0
-395 60 0
-395 285 0
396 395 394 0
-396 -395 0
-396 -394 0
397 -396 382 0
-397 396 0
-397 -382 0
398 396 -382 0
-398 -396 0
-398 382 0
399 397 398 0
-399 -397 0
-399 -398 0
400 393 307 0
-400 -393 0
-400 -307 0
401 -69 393 0
-401 69 0
-401 -393 0
402 -69 307 0
-402 69 0
-402 -307 0
403 401 402 0
-403 -401 0
-403 -402 0
404 -403 400 0
-404 403 0
-404 -400 0
405 69 307 0
-405 -69 0
-405 -307 0
406 -69 -307 0
-406 69 0
-406 307 0
407 406 405 0
-407 -406 0
-407 -405 0
408 393 -407 0
-408 -393 0
-408 407 0
409 -393 407 0
-409 393 0
-409 -407 0
410 409 408 0
-410 -409 0
-410 -408 0
411 404 318 0
-411 -404 0
-411 -318 0
412 -78 404 0
-412 78 0
-412 -404 0
413 -78 318 0
-413 78 0
-413 -318 0
414 412 413 0
-414 -412 0
-414 -413 0
415 -414 411 0
-415 414 0
-415 -411 0
416 78 318 0
-416 -78 0
-416 -318 0
417 -78 -318 0
-417 78 0
-417 318 0
418 417 416 0
-418 -417 0
-418 -416 0
419 404 -418 0
-419 -404 0
-419 418 0
420 -404 418 0
-420 404 0
-420 -418 0
421 419 420 0
-421 -419 0
-421 -420 0
422 415 312 0
-422 -415 0
-422 -312 0
423 -87 415 0
-423 87 0
-423 -415 0
424 -87 312 0
-424 87 0
-424 -312 0
425 423 424 0
-425 -423 0
-425 -424 0
426 -425 422 0
-426 425 0
-426 -422 0
427 87 312 0
-427 -87 0
-427 -312 0
428 -87 -312 0
-428 87 0
-428 312 0
429 427 428 0
-429 -427 0
-429 -428 0
430 415 -429 0
-430 -415 0
-430 429 0
431 -415 429 0
-431 415 0
-431 -429 0
432 431 430 0
-432 -431 0
-432 -430 0
433 -28 -36 0
-433 28 0
-433 36 0
434 -36 28 0
-434 36 0
-434 -28 0
435 -28 36 0
-435 28 0
-435 -36 0
436 434 435 0
-436 -434 0
-436 -435 0
437 -433 322 0
-437 433 0
-437 -322 0
438 -29 -433 0
-438 29 0
-438 433 0
439 -29 322 0
-439 29 0
-439 -322 0
440 438 439 0
-440 -438 0
-440 -439 0
441 437 -440 0
-441 -437 0
-441 440 0
442 29 322 0
-442 -29 0
-442 -322 0
443 -29 -322 0
-443 29 0
-443 322 0
444 443 442 0
-444 -443 0
-444 -442 0
445 -433 -444 0
-445 433 0
-445 444 0
446 433 444 0
-446 -433 0
-446 -444 0
447 445 446 0
-447 -445 0
-447 -446 0
448 441 333 0
-448 -441 0
-448 -333 0
449 -30 441 0
-449 30 0
-449 -441 0
450 -30 333 0
-450 30 0
-450 -333 0
451 449 450 0
-451 -449 0
-451 -450 0
452 448 -451 0
-452 -448 0
-452 451 0
453 30 333 0
-453 -30 0
-453 -333 0
454 -30 -333 0
-454 30 0
-454 333 0
455 453 454 0
-455 -453 0
-455 -454 0
456 441 -455 0
-456 -441 0
-456 455 0
457 -441 455 0
-457 441 0
-457 -455 0
458 456 457 0
-458 -456 0
-458 -457 0
459 452 344 0
-459 -452 0
-459 -344 0
460 -31 452 0
-460 31 0
-460 -452 0
461 -31 344 0
-461 31 0
-461 -344 0
462 460 461 0
-462 -460 0
-462 -461 0
463 459 -462 0
-463 -459 0
-463 462 0
464 31 344 0
-464 -31 0
-464 -344 0
465 -31 -344 0
-465 31 0
-465 344 0
466 465 464 0
-466 -465 0
-466 -464 0
467 452 -466 0
-467 -452 0
-467 466 0
468 -452 466 0
-468 452 0
-468 -466 0
469 468 467 0
-469 -468 0
-469 -467 0
470 463 355 0
-470 -463 0
-470 -355 0
471 -32 463 0
-471 32 0
-471 -463 0
472 -32 355 0
-472 32 0
-472 -355 0
473 471 472 0
-473 -471 0
-473 -472 0
474 -473 470 0
-474 473 0
-474 -470 0
475 32 355 0
-475 -32 0
-475 -355 0
476 -32 -355 0
-476 32 0
-476 355 0
477 476 475 0
-477 -476 0
-477 -475 0
478 463 -477 0
-478 -463 0
-478 477 0
479 -463 477 0
-479 463 0
-479 -477 0
480 479 478 0
-480 -479 0
-480 -478 0
481 366 474 0
-481 -366 0
-481 -474 0
482 -33 474 0
-482 33 0
-482 -474 0
483 -33 366 0
-483 33 0
-483 -366 0
484 483 482 0
-484 -483 0
-484 -482 0
485 -484 481 0
-485 484 0
-485 -481 0
486 33 366 0
-486 -33 0
-486 -366 0
487 -33 -366 0
-487 33 0
-487 366 0
488 487 486 0
-488 -487 0
-488 -486 0
489 -488 474 0
-489 488 0
-489 -474 0
490 488 -474 0
-490 -488 0
-490 474 0
491 489 490 0
-491 -489 0
-491 -490 0
492 485 377 0
-492 -485 0
-492 -377 0
493 -34 485 0
-493 34 0
-493 -485 0
494 -34 377 0
-494 34 0
-494 -377 0
495 493 494 0
-495 -493 0
-495 -494 0
496 492 -495 0
-496 -492 0
-496 495 0
497 34 377 0
-497 -34 0
-497 -377 0
498 -34 -377 0
-498 34 0
-498 377 0
499 498 497 0
-499 -498 0
-499 -497 0
500 -499 485 0
-500 499 0
-500 -485 0
501 499 -485 0
-501 -499 0
-501 485 0
502 500 501 0
-502 -500 0
-502 -501 0
503 496 388 0
-503 -496 0
-503 -388 0
504 -43 496 0
-504 43 0
-504 -496 0
505 -43 388 0
-505 43 0
-505 -388 0
506 504 505 0
-506 -504 0
-506 -505 0
507 503 -506 0
-507 -503 0
-507 506 0
508 43 388 0
-508 -43 0
-508 -388 0
509 -43 -388 0
-509 43 0
-509 388 0
510 509 508 0
-510 -509 0
-510 -508 0
511 -510 496 0
-511 510 0
-511 -496 0
512 510 -496 0
-512 -510 0
-512 496 0
513 512 511 0
-513 -512 0
-513 -511 0
514 507 399 0
-514 -507 0
-514 -399 0
515 -52 507 0
-515 52 0
-515 -507 0
516 -52 399 0
-516 52 0
-516 -399 0
517 515 516 0
-517 -515 0
-517 -516 0
518 514 -517 0
-518 -514 0
-518 517 0
519 52 399 0
-519 -52 0
-519 -399 0
520 -52 -399 0
-520 52 0
-520 399 0
521 520 519 0
-521 -520 0
-521 -519 0
522 507 -521 0
-522 -507 0
-522 521 0
523 -507 521 0
-523 507 0
-523 -521 0
524 523 522 0
-524 -523 0
-524 -522 0
525 410 518 0
-525 -410 0
-525 -518 0
526 -61 518 0
-526 61 0
-526 -518 0
527 -61 410 0
-527 61 0
-527 -410 0
528 527 526 0
-528 -527 0
-528 -526 0
529 -528 525 0
-529 528 0
-529 -525 0
530 61 410 0
-530 -61 0
-530 -410 0
531 -61 -410 0
-531 61 0
-531 410 0
532 530 531 0
-532 -530 0
-532 -531 0
533 -532 518 0
-533 532 0
-533 -518 0
534 532 -518 0
-534 -532 0
-534 518 0
535 534 533 0
-535 -534 0
-535 -533 0
536 421 529 0
-536 -421 0
-536 -529 0
537 -70 529 0
-537 70 0
-537 -529 0
538 -70 421 0
-538 70 0
-538 -421 0
539 538 537 0
-539 -538 0
-539 -537 0
540 536 -539 0
-540 -536 0
-540 539 0
541 70 421 0
-541 -70 0
-541 -421 0
542 -70 -421 0
-542 70 0
-542 421 0
543 542 541 0
-543 -542 0
-543 -541 0
544 -543 529 0
-544 543 0
-544 -529 0
545 543 -529 0
-545 -543 0
-545 529 0
546 545 544 0
-546 -545 0
-546 -544 0
547 540 432 0
-547 -540 0
-547 -432 0
548 -79 540 0
-548 79 0
-548 -540 0
549 -79 432 0
-549 79 0
-549 -432 0
550 548 549 0
-550 -548 0
-550 -549 0
551 547 -550 0
-551 -547 0
-551 550 0
552 79 432 0
-552 -79 0
-552 -432 0
553 -79 -432 0
-553 79 0
-553 432 0
554 552 553 0
-554 -552 0
-554 -553 0
555 -554 540 0
-555 554 0
-555 -540 0
556 554 -540 0
-556 -554 0
-556 540 0
557 556 555 0
-557 -556 0
-557 -555 0
558 551 426 0
-558 -551 0
-558 -426 0
559 -88 551 0
-559 88 0
-559 -551 0
560 -88 426 0
-560 88 0
-560 -426 0
561 559 560 0
-561 -559 0
-561 -560 0
562 558 -561 0
-562 -558 0
-562 561 0
563 88 426 0
-563 -88 0
-563 -426 0
564 -88 -426 0
-564 88 0
-564 426 0
565 564 563 0
-565 -564 0
-565 -563 0
566 551 -565 0
-566 -551 0
-566 565 0
567 -551 565 0
-567 551 0
-567 -565 0
568 567 566 0
-568 -567 0
-568 -566 0
569 -19 27 0
-569 19 0
-569 -27 0
570 -27 19 0
-570 27 0
-570 -19 0
571 569 570 0
-571 -569 0
-571 -570 0
572 -27 -19 0
-572 27 0
-572 19 0
573 -20 -436 0
-573 20 0
-573 436 0
574 20 436 0
-574 -20 0
-574 -436 0
575 573 574 0
-575 -573 0
-575 -574 0
576 -572 -575 0
-576 572 0
-576 575 0
577 572 575 0
-577 -572 0
-577 -575 0
578 576 577 0
-578 -576 0
-578 -577 0
579 -20 -572 0
-579 20 0
-579 572 0
580 -572 436 0
-580 572 0
-580 -436 0
581 -20 436 0
-581 20 0
-581 -436 0
582 581 580 0
-582 -581 0
-582 -580 0
583 579 -582 0
-583 -579 0
-583 582 0
584 -21 -447 0
-584 21 0
-584 447 0
585 21 447 0
-585 -21 0
-585 -447 0
586 585 584 0
-586 -585 0
-586 -584 0
587 583 -586 0
-587 -583 0
-587 586 0
588 -583 586 0
-588 583 0
-588 -586 0
589 588 587 0
-589 -588 0
-589 -587 0
590 -21 583 0
-590 21 0
-590 -583 0
591 583 447 0
-591 -583 0
-591 -447 0
592 -21 447 0
-592 21 0
-592 -447 0
593 591 592 0
-593 -591 0
-593 -592 0
594 590 -593 0
-594 -590 0
-594 593 0
595 -22 -458 0
-595 22 0
-595 458 0
596 22 458 0
-596 -22 0
-596 -458 0
597 595 596 0
-597 -595 0
-597 -596 0
598 594 -597 0
-598 -594 0
-598 597 0
599 -594 597 0
-599 594 0
-599 -597 0
600 598 599 0
-600 -598 0
-600 -599 0
601 -22 594 0
-601 22 0
-601 -594 0
602 594 458 0
-602 -594 0
-602 -458 0
603 -22 458 0
-603 22 0
-603 -458 0
604 602 603 0
-604 -602 0
-604 -603 0
605 601 -604 0
-605 -601 0
-605 604 0
606 -23 -469 0
-606 23 0
-606 469 0
607 23 469 0
-607 -23 0
-607 -469 0
608 607 606 0
-608 -607 0
-608 -606 0
609 605 -608 0
-609 -605 0
-609 608 0
610 -605 608 0
-610 605 0
-610 -608 0
611 610 609 0
-611 -610 0
-611 -609 0
612 -23 605 0
-612 23 0
-612 -605 0
613 469 605 0
-613 -469 0
-613 -605 0
614 -23 469 0
-614 23 0
-614 -469 0
615 614 613 0
-615 -614 0
-615 -613 0
616 -615 612 0
-616 615 0
-616 -612 0
617 -24 -480 0
-617 24 0
-617 480 0
618 24 480 0
-618 -24 0
-618 -480 0
619 617 618 0
-619 -617 0
-619 -618 0
620 616 -619 0
-620 -616 0
-620 619 0
621 -616 619 0
-621 616 0
-621 -619 0
622 620 621 0
-622 -620 0
-622 -621 0
623 -24 616 0
-623 24 0
-623 -616 0
624 616 480 0
-624 -616 0
-624 -480 0
625 -24 480 0
-625 24 0
-625 -480 0
626 625 624 0
-626 -625 0
-626 -624 0
627 623 -626 0
-627 -623 0
-627 626 0
628 -25 -491 0
-628 25 0
-628 491 0
629 25 491 0
-629 -25 0
-629 -491 0
630 629 628 0
-630 -629 0
-630 -628 0
631 627 -630 0
-631 -627 0
-631 630 0
632 -627 630 0
-632 627 0
-632 -630 0
633 631 632 0
-633 -631 0
-633 -632 0
634 -25 627 0
-634 25 0
-634 -627 0
635 627 491 0
-635 -627 0
-635 -491 0
636 -25 491 0
-636 25 0
-636 -491 0
637 635 636 0
-637 -635 0
-637 -636 0
638 634 -637 0
-638 -634 0
-638 637 0
639 -26 -502 0
-639 26 0
-639 502 0
640 26 502 0
-640 -26 0
-640 -502 0
641 639 640 0
-641 -639 0
-641 -640 0
642 -641 638 0
-642 641 0
-642 -638 0
643 641 -638 0
-643 -641 0
-643 638 0
644 643 642 0
-644 -643 0
-644 -642 0
645 -26 638 0
-645 26 0
-645 -638 0
646 502 638 0
-646 -502 0
-646 -638 0
647 -26 502 0
-647 26 0
-647 -502 0
648 646 647 0
-648 -646 0
-648 -647 0
649 -648 645 0
-649 648 0
-649 -645 0
650 -35 -513 0
-650 35 0
-650 513 0
651 35 513 0
-651 -35 0
-651 -513 0
652 650 651 0
-652 -650 0
-652 -651 0
653 -652 649 0
-653 652 0
-653 -649 0
654 652 -649 0
-654 -652 0
-654 649 0
655 653 654 0
-655 -653 0
-655 -654 0
656 -35 649 0
-656 35 0
-656 -649 0
657 513 649 0
-657 -513 0
-657 -649 0
658 -35 513 0
-658 35 0
-658 -513 0
659 658 657 0
-659 -658 0
-659 -657 0
660 -659 656 0
-660 659 0
-660 -656 0
661 -44 -524 0
-661 44 0
-661 524 0
662 44 524 0
-662 -44 0
-662 -524 0
663 661 662 0
-663 -661 0
-663 -662 0
664 660 -663 0
-664 -660 0
-664 663 0
665 -660 663 0
-665 660 0
-665 -663 0
666 665 664 0
-666 -665 0
-666 -664 0
667 -44 660 0
-667 44 0
-667 -660 0
668 660 524 0
-668 -660 0
-668 -524 0
669 -44 524 0
-669 44 0
-669 -524 0
670 668 669 0
-670 -668 0
-670 -669 0
671 667 -670 0
-671 -667 0
-671 670 0
672 -53 -535 0
-672 53 0
-672 535 0
673 53 535 0
-673 -53 0
-673 -535 0
674 672 673 0
-674 -672 0
-674 -673 0
675 -674 671 0
-675 674 0
-675 -671 0
676 674 -671 0
-676 -674 0
-676 671 0
677 676 675 0
-677 -676 0
-677 -675 0
678 -53 671 0
-678 53 0
-678 -671 0
679 671 535 0
-679 -671 0
-679 -535 0
680 -53 535 0
-680 53 0
-680 -535 0
681 680 679 0
-681 -680 0
-681 -679 0
682 -681 678 0
-682 681 0
-682 -678 0
683 -62 -546 0
-683 62 0
-683 546 0
684 62 546 0
-684 -62 0
-684 -546 0
685 683 684 0
-685 -683 0
-685 -684 0
686 -685 682 0
-686 685 0
-686 -682 0
687 685 -682 0
-687 -685 0
-687 682 0
688 687 686 0
-688 -687 0
-688 -686 0
689 -62 682 0
-689 62 0
-689 -682 0
690 546 682 0
-690 -546 0
-690 -682 0
691 -62 546 0
-691 62 0
-691 -546 0
692 691 690 0
-692 -691 0
-692 -690 0
693 689 -692 0
-693 -689 0
-693 692 0
694 -71 -557 0
-694 71 0
-694 557 0
695 71 557 0
-695 -71 0
-695 -557 0
696 695 694 0
-696 -695 0
-696 -694 0
697 -696 693 0
-697 696 0
-697 -693 0
698 696 -693 0
-698 -696 0
-698 693 0
699 698 697 0
-699 -698 0
-699 -697 0
700 -71 693 0
-700 71 0
-700 -693 0
701 557 693 0
-701 -557 0
-701 -693 0
702 -71 557 0
-702 71 0
-702 -557 0
703 701 702 0
-703 -701 0
-703 -702 0
704 -703 700 0
-704 703 0
-704 -700 0
705 -80 -568 0
-705 80 0
-705 568 0
706 80 568 0
-706 -80 0
-706 -568 0
707 705 706 0
-707 -705 0
-707 -706 0
708 -707 704 0
-708 707 0
-708 -704 0
709 707 -704 0
-709 -707 0
-709 704 0
710 708 709 0
-710 -708 0
-710 -709 0
711 -80 704 0
-711 80 0
-711 -704 0
712 568 704 0
-712 -568 0
-712 -704 0
713 -80 568 0
-713 80 0
-713 -568 0
714 712 713 0
-714 -712 0
-714 -713 0
715 711 -714 0
-715 -711 0
-715 714 0
716 -89 -562 0
-716 89 0
-716 562 0
717 89 562 0
-717 -89 0
-717 -562 0
718 716 717 0
-718 -716 0
-718 -717 0
719 715 -718 0
-719 -715 0
-719 718 0
720 -715 718 0
-720 715 0
-720 -718 0
721 720 719 0
-721 -720 0
-721 -719 0
722 -89 715 0
-722 89 0
-722 -715 0
723 715 562 0
-723 -715 0
-723 -562 0
724 -89 562 0
-724 89 0
-724 -562 0
725 723 724 0
-725 -723 0
-725 -724 0
726 722 -725 0
-726 -722 0
-726 725 0
-727 18 0
727 -18 0
-728 -571 0
728 571 0
-729 -578 0
729 578 0
-730 -589 0
730 589 0
-731 -600 0
731 600 0
-732 -611 0
732 611 0
-733 -622 0
733 622 0
-734 -633 0
734 633 0
-735 -644 0
735 644 0
-736 -655 0
736 655 0
-737 -666 0
737 666 0
-738 -677 0
738 677 0
-739 -688 0
739 688 0
-740 -699 0
740 699 0
-741 -710 0
741 710 0
-742 -721 0
742 721 0
-743 -726 0
743 726 0
-727 0
-728 0
-729 0
730 0
731 0
732 0
733 0
-734 0
-735 0
-736 0
-737 0
738 0
-739 0
-740 0
741 0
-742 0
743 0
